p edge 30 215 10
v 3 2 5 23
v 4 6 21 22 29
v 3 1 8 12
v 4 7 14 16 24
v 5 3 11 19 25 28
v 2 17 26
v 3 4 18 20
v 2 9 30
v 2 15 27
v 2 10 13
e 1 2
e 1 6
e 1 7
e 1 12
e 1 14
e 1 15
e 1 17
e 1 18
e 1 21
e 1 25
e 1 28
e 1 30
e 2 3
e 2 6
e 2 7
e 2 8
e 2 12
e 2 13
e 2 14
e 2 15
e 2 18
e 2 19
e 2 21
e 2 22
e 2 23
e 2 25
e 2 26
e 2 27
e 2 29
e 3 5
e 3 6
e 3 8
e 3 9
e 3 13
e 3 15
e 3 16
e 3 18
e 3 21
e 3 22
e 3 23
e 3 24
e 3 25
e 3 26
e 4 5
e 4 6
e 4 9
e 4 10
e 4 12
e 4 13
e 4 14
e 4 15
e 4 16
e 4 17
e 4 18
e 4 21
e 4 22
e 4 24
e 4 26
e 4 27
e 4 28
e 4 30
e 5 9
e 5 10
e 5 11
e 5 13
e 5 14
e 5 17
e 5 18
e 5 20
e 5 22
e 5 23
e 5 26
e 5 28
e 5 29
e 5 30
e 6 7
e 6 10
e 6 11
e 6 12
e 6 13
e 6 18
e 6 19
e 6 20
e 6 22
e 6 23
e 6 25
e 6 28
e 6 30
e 7 9
e 7 12
e 7 13
e 7 14
e 7 15
e 7 16
e 7 18
e 7 19
e 7 21
e 7 22
e 7 24
e 7 25
e 7 26
e 8 9
e 8 13
e 8 16
e 8 18
e 8 19
e 8 20
e 8 21
e 8 24
e 8 26
e 8 28
e 8 29
e 9 10
e 9 11
e 9 14
e 9 15
e 9 16
e 9 18
e 9 19
e 9 20
e 9 26
e 9 28
e 9 29
e 10 12
e 10 14
e 10 15
e 10 18
e 10 19
e 10 20
e 10 21
e 10 24
e 10 26
e 10 30
e 11 14
e 11 16
e 11 21
e 11 26
e 11 28
e 11 30
e 12 13
e 12 16
e 12 19
e 12 21
e 12 23
e 12 24
e 12 28
e 12 29
e 13 14
e 13 15
e 13 18
e 13 20
e 13 23
e 13 24
e 13 25
e 13 26
e 13 28
e 14 15
e 14 19
e 14 20
e 14 21
e 14 25
e 14 26
e 14 29
e 14 30
e 15 17
e 15 18
e 15 19
e 15 23
e 15 24
e 15 27
e 16 19
e 16 20
e 16 21
e 16 22
e 16 24
e 16 26
e 17 19
e 17 23
e 17 25
e 17 28
e 17 30
e 18 21
e 18 22
e 18 24
e 18 25
e 18 28
e 18 30
e 19 23
e 19 24
e 19 28
e 20 21
e 20 22
e 20 23
e 20 25
e 20 28
e 20 30
e 21 23
e 21 24
e 21 25
e 21 27
e 21 28
e 21 29
e 22 25
e 22 29
e 22 30
e 23 27
e 24 27
e 24 30
e 25 26
e 25 27
e 25 28
e 26 27
e 26 28
e 27 28
e 27 29
